$ LBS instance with n = 51, seed = 7541208
letting cards be [38,20,32,24,35,13,45,51,37,19,0,27,21,41,8,49,28,12,14,4,44,42,46,40,50,36,29,31,34,9,15,5,47,30,16,26,6,48,43,7,10,11,18,3,25,17,1,33,39,23,2]
